c CNF file corresponding to a (partial) station packing problem.
p cnf 4920 198
1 2 3 4 5 6 7 8 9 10 11 12 13 14 0
-1 -2 0
-1 -3 0
-1 -4 0
-1 -5 0
-1 -6 0
-1 -7 0
-1 -8 0
-1 -9 0
-1 -10 0
-1 -11 0
-1 -12 0
-1 -13 0
-1 -14 0
-2 -3 0
-2 -4 0
-2 -5 0
-2 -6 0
-2 -7 0
-2 -8 0
-2 -9 0
-2 -10 0
-2 -11 0
-2 -12 0
-2 -13 0
-2 -14 0
-3 -4 0
-3 -5 0
-3 -6 0
-3 -7 0
-3 -8 0
-3 -9 0
-3 -10 0
-3 -11 0
-3 -12 0
-3 -13 0
-3 -14 0
-4 -5 0
-4 -6 0
-4 -7 0
-4 -8 0
-4 -9 0
-4 -10 0
-4 -11 0
-4 -12 0
-4 -13 0
-4 -14 0
-5 -6 0
-5 -7 0
-5 -8 0
-5 -9 0
-5 -10 0
-5 -11 0
-5 -12 0
-5 -13 0
-5 -14 0
-6 -7 0
-6 -8 0
-6 -9 0
-6 -10 0
-6 -11 0
-6 -12 0
-6 -13 0
-6 -14 0
-7 -8 0
-7 -9 0
-7 -10 0
-7 -11 0
-7 -12 0
-7 -13 0
-7 -14 0
-8 -9 0
-8 -10 0
-8 -11 0
-8 -12 0
-8 -13 0
-8 -14 0
-9 -10 0
-9 -11 0
-9 -12 0
-9 -13 0
-9 -14 0
-10 -11 0
-10 -12 0
-10 -13 0
-10 -14 0
-11 -12 0
-11 -13 0
-11 -14 0
-12 -13 0
-12 -14 0
-13 -14 0
4906 4907 4908 4909 4910 4911 4912 4913 4914 4915 4916 4917 4918 4919 4920 0
-4906 -4907 0
-4906 -4908 0
-4906 -4909 0
-4906 -4910 0
-4906 -4911 0
-4906 -4912 0
-4906 -4913 0
-4906 -4914 0
-4906 -4915 0
-4906 -4916 0
-4906 -4917 0
-4906 -4918 0
-4906 -4919 0
-4906 -4920 0
-4907 -4908 0
-4907 -4909 0
-4907 -4910 0
-4907 -4911 0
-4907 -4912 0
-4907 -4913 0
-4907 -4914 0
-4907 -4915 0
-4907 -4916 0
-4907 -4917 0
-4907 -4918 0
-4907 -4919 0
-4907 -4920 0
-4908 -4909 0
-4908 -4910 0
-4908 -4911 0
-4908 -4912 0
-4908 -4913 0
-4908 -4914 0
-4908 -4915 0
-4908 -4916 0
-4908 -4917 0
-4908 -4918 0
-4908 -4919 0
-4908 -4920 0
-4909 -4910 0
-4909 -4911 0
-4909 -4912 0
-4909 -4913 0
-4909 -4914 0
-4909 -4915 0
-4909 -4916 0
-4909 -4917 0
-4909 -4918 0
-4909 -4919 0
-4909 -4920 0
-4910 -4911 0
-4910 -4912 0
-4910 -4913 0
-4910 -4914 0
-4910 -4915 0
-4910 -4916 0
-4910 -4917 0
-4910 -4918 0
-4910 -4919 0
-4910 -4920 0
-4911 -4912 0
-4911 -4913 0
-4911 -4914 0
-4911 -4915 0
-4911 -4916 0
-4911 -4917 0
-4911 -4918 0
-4911 -4919 0
-4911 -4920 0
-4912 -4913 0
-4912 -4914 0
-4912 -4915 0
-4912 -4916 0
-4912 -4917 0
-4912 -4918 0
-4912 -4919 0
-4912 -4920 0
-4913 -4914 0
-4913 -4915 0
-4913 -4916 0
-4913 -4917 0
-4913 -4918 0
-4913 -4919 0
-4913 -4920 0
-4914 -4915 0
-4914 -4916 0
-4914 -4917 0
-4914 -4918 0
-4914 -4919 0
-4914 -4920 0
-4915 -4916 0
-4915 -4917 0
-4915 -4918 0
-4915 -4919 0
-4915 -4920 0
-4916 -4917 0
-4916 -4918 0
-4916 -4919 0
-4916 -4920 0
-4917 -4918 0
-4917 -4919 0
-4917 -4920 0
-4918 -4919 0
-4918 -4920 0
-4919 -4920 0
